p cnf 225 1881
1 2 3 4 5 0
6 7 8 9 10 0
11 12 13 14 15 0
16 17 18 19 20 0
21 22 23 24 25 0
26 27 28 29 30 0
31 32 33 34 35 0
36 37 38 39 40 0
41 42 43 44 45 0
46 47 48 49 50 0
51 52 53 54 55 0
56 57 58 59 60 0
61 62 63 64 65 0
66 67 68 69 70 0
71 72 73 74 75 0
76 77 78 79 80 0
81 82 83 84 85 0
86 87 88 89 90 0
91 92 93 94 95 0
96 97 98 99 100 0
101 102 103 104 105 0
106 107 108 109 110 0
111 112 113 114 115 0
116 117 118 119 120 0
121 122 123 124 125 0
126 127 128 129 130 0
131 132 133 134 135 0
136 137 138 139 140 0
141 142 143 144 145 0
146 147 148 149 150 0
151 152 153 154 155 0
156 157 158 159 160 0
161 162 163 164 165 0
166 167 168 169 170 0
171 172 173 174 175 0
176 177 178 179 180 0
181 182 183 184 185 0
186 187 188 189 190 0
191 192 193 194 195 0
196 197 198 199 200 0
201 202 203 204 205 0
206 207 208 209 210 0
211 212 213 214 215 0
216 217 218 219 220 0
221 222 223 224 225 0
-1 -2 0
-1 -3 0
-1 -4 0
-1 -5 0
-2 -3 0
-2 -4 0
-2 -5 0
-3 -4 0
-3 -5 0
-4 -5 0
-6 -7 0
-6 -8 0
-6 -9 0
-6 -10 0
-7 -8 0
-7 -9 0
-7 -10 0
-8 -9 0
-8 -10 0
-9 -10 0
-11 -12 0
-11 -13 0
-11 -14 0
-11 -15 0
-12 -13 0
-12 -14 0
-12 -15 0
-13 -14 0
-13 -15 0
-14 -15 0
-16 -17 0
-16 -18 0
-16 -19 0
-16 -20 0
-17 -18 0
-17 -19 0
-17 -20 0
-18 -19 0
-18 -20 0
-19 -20 0
-21 -22 0
-21 -23 0
-21 -24 0
-21 -25 0
-22 -23 0
-22 -24 0
-22 -25 0
-23 -24 0
-23 -25 0
-24 -25 0
-26 -27 0
-26 -28 0
-26 -29 0
-26 -30 0
-27 -28 0
-27 -29 0
-27 -30 0
-28 -29 0
-28 -30 0
-29 -30 0
-31 -32 0
-31 -33 0
-31 -34 0
-31 -35 0
-32 -33 0
-32 -34 0
-32 -35 0
-33 -34 0
-33 -35 0
-34 -35 0
-36 -37 0
-36 -38 0
-36 -39 0
-36 -40 0
-37 -38 0
-37 -39 0
-37 -40 0
-38 -39 0
-38 -40 0
-39 -40 0
-41 -42 0
-41 -43 0
-41 -44 0
-41 -45 0
-42 -43 0
-42 -44 0
-42 -45 0
-43 -44 0
-43 -45 0
-44 -45 0
-46 -47 0
-46 -48 0
-46 -49 0
-46 -50 0
-47 -48 0
-47 -49 0
-47 -50 0
-48 -49 0
-48 -50 0
-49 -50 0
-51 -52 0
-51 -53 0
-51 -54 0
-51 -55 0
-52 -53 0
-52 -54 0
-52 -55 0
-53 -54 0
-53 -55 0
-54 -55 0
-56 -57 0
-56 -58 0
-56 -59 0
-56 -60 0
-57 -58 0
-57 -59 0
-57 -60 0
-58 -59 0
-58 -60 0
-59 -60 0
-61 -62 0
-61 -63 0
-61 -64 0
-61 -65 0
-62 -63 0
-62 -64 0
-62 -65 0
-63 -64 0
-63 -65 0
-64 -65 0
-66 -67 0
-66 -68 0
-66 -69 0
-66 -70 0
-67 -68 0
-67 -69 0
-67 -70 0
-68 -69 0
-68 -70 0
-69 -70 0
-71 -72 0
-71 -73 0
-71 -74 0
-71 -75 0
-72 -73 0
-72 -74 0
-72 -75 0
-73 -74 0
-73 -75 0
-74 -75 0
-76 -77 0
-76 -78 0
-76 -79 0
-76 -80 0
-77 -78 0
-77 -79 0
-77 -80 0
-78 -79 0
-78 -80 0
-79 -80 0
-81 -82 0
-81 -83 0
-81 -84 0
-81 -85 0
-82 -83 0
-82 -84 0
-82 -85 0
-83 -84 0
-83 -85 0
-84 -85 0
-86 -87 0
-86 -88 0
-86 -89 0
-86 -90 0
-87 -88 0
-87 -89 0
-87 -90 0
-88 -89 0
-88 -90 0
-89 -90 0
-91 -92 0
-91 -93 0
-91 -94 0
-91 -95 0
-92 -93 0
-92 -94 0
-92 -95 0
-93 -94 0
-93 -95 0
-94 -95 0
-96 -97 0
-96 -98 0
-96 -99 0
-96 -100 0
-97 -98 0
-97 -99 0
-97 -100 0
-98 -99 0
-98 -100 0
-99 -100 0
-101 -102 0
-101 -103 0
-101 -104 0
-101 -105 0
-102 -103 0
-102 -104 0
-102 -105 0
-103 -104 0
-103 -105 0
-104 -105 0
-106 -107 0
-106 -108 0
-106 -109 0
-106 -110 0
-107 -108 0
-107 -109 0
-107 -110 0
-108 -109 0
-108 -110 0
-109 -110 0
-111 -112 0
-111 -113 0
-111 -114 0
-111 -115 0
-112 -113 0
-112 -114 0
-112 -115 0
-113 -114 0
-113 -115 0
-114 -115 0
-116 -117 0
-116 -118 0
-116 -119 0
-116 -120 0
-117 -118 0
-117 -119 0
-117 -120 0
-118 -119 0
-118 -120 0
-119 -120 0
-121 -122 0
-121 -123 0
-121 -124 0
-121 -125 0
-122 -123 0
-122 -124 0
-122 -125 0
-123 -124 0
-123 -125 0
-124 -125 0
-126 -127 0
-126 -128 0
-126 -129 0
-126 -130 0
-127 -128 0
-127 -129 0
-127 -130 0
-128 -129 0
-128 -130 0
-129 -130 0
-131 -132 0
-131 -133 0
-131 -134 0
-131 -135 0
-132 -133 0
-132 -134 0
-132 -135 0
-133 -134 0
-133 -135 0
-134 -135 0
-136 -137 0
-136 -138 0
-136 -139 0
-136 -140 0
-137 -138 0
-137 -139 0
-137 -140 0
-138 -139 0
-138 -140 0
-139 -140 0
-141 -142 0
-141 -143 0
-141 -144 0
-141 -145 0
-142 -143 0
-142 -144 0
-142 -145 0
-143 -144 0
-143 -145 0
-144 -145 0
-146 -147 0
-146 -148 0
-146 -149 0
-146 -150 0
-147 -148 0
-147 -149 0
-147 -150 0
-148 -149 0
-148 -150 0
-149 -150 0
-151 -152 0
-151 -153 0
-151 -154 0
-151 -155 0
-152 -153 0
-152 -154 0
-152 -155 0
-153 -154 0
-153 -155 0
-154 -155 0
-156 -157 0
-156 -158 0
-156 -159 0
-156 -160 0
-157 -158 0
-157 -159 0
-157 -160 0
-158 -159 0
-158 -160 0
-159 -160 0
-161 -162 0
-161 -163 0
-161 -164 0
-161 -165 0
-162 -163 0
-162 -164 0
-162 -165 0
-163 -164 0
-163 -165 0
-164 -165 0
-166 -167 0
-166 -168 0
-166 -169 0
-166 -170 0
-167 -168 0
-167 -169 0
-167 -170 0
-168 -169 0
-168 -170 0
-169 -170 0
-171 -172 0
-171 -173 0
-171 -174 0
-171 -175 0
-172 -173 0
-172 -174 0
-172 -175 0
-173 -174 0
-173 -175 0
-174 -175 0
-176 -177 0
-176 -178 0
-176 -179 0
-176 -180 0
-177 -178 0
-177 -179 0
-177 -180 0
-178 -179 0
-178 -180 0
-179 -180 0
-181 -182 0
-181 -183 0
-181 -184 0
-181 -185 0
-182 -183 0
-182 -184 0
-182 -185 0
-183 -184 0
-183 -185 0
-184 -185 0
-186 -187 0
-186 -188 0
-186 -189 0
-186 -190 0
-187 -188 0
-187 -189 0
-187 -190 0
-188 -189 0
-188 -190 0
-189 -190 0
-191 -192 0
-191 -193 0
-191 -194 0
-191 -195 0
-192 -193 0
-192 -194 0
-192 -195 0
-193 -194 0
-193 -195 0
-194 -195 0
-196 -197 0
-196 -198 0
-196 -199 0
-196 -200 0
-197 -198 0
-197 -199 0
-197 -200 0
-198 -199 0
-198 -200 0
-199 -200 0
-201 -202 0
-201 -203 0
-201 -204 0
-201 -205 0
-202 -203 0
-202 -204 0
-202 -205 0
-203 -204 0
-203 -205 0
-204 -205 0
-206 -207 0
-206 -208 0
-206 -209 0
-206 -210 0
-207 -208 0
-207 -209 0
-207 -210 0
-208 -209 0
-208 -210 0
-209 -210 0
-211 -212 0
-211 -213 0
-211 -214 0
-211 -215 0
-212 -213 0
-212 -214 0
-212 -215 0
-213 -214 0
-213 -215 0
-214 -215 0
-216 -217 0
-216 -218 0
-216 -219 0
-216 -220 0
-217 -218 0
-217 -219 0
-217 -220 0
-218 -219 0
-218 -220 0
-219 -220 0
-221 -222 0
-221 -223 0
-221 -224 0
-221 -225 0
-222 -223 0
-222 -224 0
-222 -225 0
-223 -224 0
-223 -225 0
-224 -225 0
-1 -8 0
-2 -10 0
-5 -14 0
-3 -15 0
-5 -17 0
-1 -16 0
-5 -33 0
-5 -31 0
-4 -48 0
-4 -46 0
-5 -53 0
-2 -53 0
-1 -57 0
-5 -58 0
-4 -69 0
-5 -70 0
-1 -73 0
-2 -72 0
-3 -87 0
-2 -86 0
-1 -94 0
-2 -94 0
-5 -99 0
-3 -97 0
-2 -102 0
-3 -105 0
-2 -110 0
-5 -109 0
-3 -113 0
-1 -111 0
-4 -117 0
-3 -119 0
-2 -122 0
-2 -121 0
-5 -127 0
-4 -128 0
-5 -135 0
-1 -135 0
-4 -137 0
-3 -139 0
-5 -141 0
-2 -143 0
-3 -154 0
-1 -151 0
-3 -160 0
-3 -156 0
-2 -165 0
-5 -161 0
-3 -178 0
-4 -179 0
-3 -184 0
-4 -181 0
-1 -189 0
-2 -190 0
-4 -192 0
-4 -191 0
-1 -205 0
-3 -205 0
-2 -209 0
-2 -206 0
-2 -217 0
-4 -217 0
-5 -223 0
-1 -224 0
-9 -13 0
-9 -11 0
-10 -21 0
-7 -24 0
-8 -34 0
-10 -33 0
-10 -44 0
-6 -45 0
-6 -54 0
-9 -54 0
-9 -60 0
-8 -58 0
-7 -74 0
-7 -73 0
-8 -77 0
-10 -80 0
-7 -83 0
-9 -85 0
-10 -87 0
-9 -89 0
-10 -91 0
-8 -92 0
-7 -98 0
-6 -97 0
-9 -104 0
-7 -104 0
-10 -106 0
-7 -108 0
-10 -113 0
-10 -114 0
-10 -125 0
-8 -121 0
-10 -129 0
-9 -127 0
-7 -150 0
-8 -146 0
-9 -155 0
-8 -153 0
-6 -163 0
-10 -162 0
-9 -168 0
-8 -168 0
-7 -179 0
-8 -179 0
-7 -182 0
-7 -183 0
-9 -188 0
-9 -187 0
-8 -191 0
-7 -191 0
-8 -197 0
-10 -199 0
-10 -204 0
-6 -201 0
-7 -212 0
-9 -215 0
-7 -219 0
-6 -217 0
-9 -221 0
-10 -225 0
-13 -16 0
-15 -19 0
-15 -26 0
-14 -30 0
-13 -35 0
-15 -34 0
-14 -37 0
-13 -39 0
-12 -43 0
-11 -43 0
-12 -47 0
-15 -50 0
-13 -59 0
-15 -58 0
-11 -61 0
-13 -64 0
-12 -82 0
-14 -84 0
-15 -87 0
-15 -89 0
-13 -94 0
-11 -91 0
-11 -96 0
-14 -98 0
-11 -101 0
-13 -101 0
-15 -108 0
-13 -106 0
-13 -111 0
-13 -114 0
-12 -116 0
-11 -116 0
-11 -123 0
-13 -125 0
-13 -128 0
-11 -127 0
-11 -139 0
-15 -136 0
-14 -144 0
-15 -142 0
-13 -155 0
-13 -151 0
-11 -160 0
-14 -158 0
-12 -163 0
-13 -162 0
-13 -170 0
-12 -170 0
-15 -187 0
-14 -186 0
-13 -200 0
-14 -199 0
-11 -203 0
-13 -205 0
-13 -211 0
-15 -212 0
-14 -218 0
-11 -216 0
-11 -222 0
-15 -222 0
-19 -22 0
-19 -23 0
-18 -30 0
-19 -30 0
-20 -34 0
-18 -33 0
-16 -36 0
-19 -36 0
-19 -43 0
-20 -44 0
-19 -50 0
-17 -50 0
-18 -51 0
-16 -52 0
-17 -60 0
-16 -57 0
-17 -65 0
-18 -62 0
-16 -69 0
-19 -69 0
-19 -82 0
-20 -82 0
-19 -88 0
-20 -89 0
-16 -95 0
-19 -95 0
-16 -99 0
-17 -100 0
-20 -107 0
-17 -107 0
-19 -115 0
-20 -115 0
-19 -136 0
-18 -136 0
-18 -144 0
-17 -142 0
-18 -153 0
-18 -154 0
-20 -161 0
-20 -162 0
-17 -168 0
-19 -166 0
-17 -172 0
-19 -175 0
-19 -179 0
-16 -178 0
-18 -187 0
-17 -189 0
-17 -207 0
-17 -209 0
-20 -213 0
-20 -215 0
-18 -223 0
-20 -223 0
-22 -30 0
-22 -27 0
-24 -35 0
-25 -32 0
-23 -40 0
-24 -39 0
-25 -45 0
-22 -44 0
-24 -47 0
-23 -48 0
-22 -51 0
-23 -53 0
-25 -59 0
-22 -60 0
-23 -73 0
-21 -75 0
-24 -81 0
-23 -84 0
-22 -87 0
-22 -89 0
-23 -91 0
-22 -92 0
-24 -99 0
-25 -100 0
-22 -103 0
-25 -105 0
-22 -109 0
-23 -109 0
-23 -115 0
-21 -114 0
-25 -122 0
-25 -125 0
-24 -128 0
-23 -127 0
-23 -133 0
-21 -134 0
-25 -141 0
-22 -144 0
-23 -146 0
-24 -147 0
-23 -153 0
-21 -151 0
-23 -159 0
-25 -159 0
-22 -167 0
-21 -169 0
-21 -175 0
-24 -172 0
-24 -180 0
-21 -180 0
-23 -186 0
-25 -190 0
-22 -191 0
-21 -193 0
-21 -198 0
-25 -199 0
-22 -202 0
-22 -201 0
-25 -209 0
-25 -208 0
-25 -211 0
-23 -211 0
-21 -216 0
-22 -218 0
-27 -33 0
-26 -34 0
-29 -40 0
-30 -39 0
-28 -45 0
-29 -42 0
-27 -48 0
-26 -47 0
-28 -53 0
-28 -55 0
-26 -57 0
-30 -56 0
-30 -65 0
-29 -64 0
-28 -69 0
-27 -68 0
-26 -80 0
-27 -77 0
-27 -81 0
-30 -85 0
-28 -86 0
-29 -90 0
-27 -97 0
-30 -98 0
-28 -103 0
-26 -102 0
-26 -107 0
-26 -108 0
-27 -131 0
-26 -132 0
-28 -140 0
-30 -140 0
-28 -145 0
-28 -144 0
-30 -150 0
-26 -150 0
-26 -152 0
-28 -152 0
-27 -160 0
-28 -160 0
-29 -165 0
-29 -162 0
-28 -167 0
-27 -167 0
-28 -175 0
-29 -171 0
-26 -180 0
-28 -176 0
-29 -188 0
-27 -186 0
-26 -191 0
-29 -195 0
-26 -202 0
-30 -205 0
-28 -206 0
-30 -210 0
-29 -212 0
-27 -212 0
-28 -220 0
-28 -216 0
-33 -44 0
-35 -44 0
-35 -60 0
-32 -56 0
-32 -64 0
-31 -65 0
-33 -70 0
-35 -69 0
-32 -74 0
-31 -73 0
-32 -77 0
-34 -77 0
-35 -82 0
-31 -81 0
-35 -89 0
-31 -90 0
-32 -101 0
-35 -102 0
-35 -107 0
-32 -109 0
-33 -112 0
-34 -115 0
-31 -116 0
-32 -120 0
-31 -123 0
-34 -124 0
-34 -130 0
-34 -129 0
-35 -132 0
-34 -132 0
-32 -137 0
-32 -136 0
-33 -142 0
-33 -141 0
-34 -148 0
-31 -147 0
-35 -152 0
-32 -153 0
-33 -156 0
-35 -159 0
-32 -162 0
-34 -162 0
-35 -178 0
-35 -177 0
-35 -185 0
-32 -183 0
-32 -188 0
-34 -188 0
-35 -193 0
-35 -194 0
-35 -196 0
-34 -196 0
-32 -202 0
-33 -204 0
-32 -209 0
-31 -209 0
-35 -215 0
-33 -215 0
-35 -218 0
-34 -216 0
-33 -225 0
-34 -224 0
-38 -49 0
-38 -47 0
-36 -53 0
-39 -55 0
-40 -59 0
-36 -58 0
-40 -72 0
-40 -71 0
-37 -76 0
-37 -77 0
-39 -83 0
-38 -83 0
-38 -100 0
-36 -96 0
-36 -105 0
-40 -102 0
-37 -108 0
-38 -108 0
-40 -113 0
-39 -112 0
-37 -138 0
-38 -136 0
-38 -145 0
-36 -145 0
-38 -149 0
-38 -147 0
-40 -151 0
-37 -155 0
-40 -166 0
-38 -167 0
-37 -175 0
-37 -173 0
-36 -177 0
-38 -177 0
-38 -183 0
-36 -182 0
-37 -188 0
-40 -186 0
-36 -198 0
-37 -197 0
-37 -203 0
-39 -203 0
-36 -209 0
-38 -206 0
-40 -211 0
-39 -215 0
-40 -220 0
-39 -219 0
-44 -50 0
-41 -48 0
-43 -55 0
-42 -51 0
-41 -61 0
-43 -63 0
-42 -67 0
-45 -67 0
-45 -73 0
-43 -75 0
-45 -79 0
-44 -77 0
-45 -81 0
-43 -83 0
-45 -86 0
-43 -90 0
-45 -95 0
-43 -95 0
-44 -100 0
-43 -99 0
-43 -101 0
-43 -102 0
-44 -106 0
-41 -106 0
-45 -111 0
-42 -115 0
-42 -123 0
-44 -124 0
-43 -128 0
-42 -127 0
-43 -135 0
-45 -132 0
-45 -136 0
-42 -140 0
-45 -147 0
-42 -148 0
-45 -152 0
-42 -151 0
-45 -160 0
-45 -156 0
-41 -163 0
-44 -163 0
-43 -182 0
-43 -183 0
-45 -187 0
-42 -190 0
-42 -192 0
-41 -195 0
-45 -196 0
-41 -200 0
-44 -201 0
-42 -205 0
-43 -207 0
-43 -209 0
-41 -215 0
-45 -213 0
-42 -221 0
-44 -224 0
-49 -53 0
-47 -52 0
-48 -59 0
-50 -58 0
-49 -62 0
-48 -65 0
-49 -74 0
-48 -74 0
-46 -98 0
-47 -99 0
-48 -104 0
-50 -103 0
-50 -108 0
-48 -110 0
-50 -117 0
-47 -120 0
-46 -123 0
-49 -122 0
-50 -129 0
-48 -128 0
-48 -138 0
-48 -137 0
-46 -169 0
-50 -169 0
-47 -180 0
-50 -179 0
-49 -181 0
-48 -185 0
-48 -190 0
-47 -189 0
-49 -192 0
-48 -192 0
-46 -204 0
-48 -203 0
-47 -207 0
-48 -208 0
-46 -220 0
-49 -217 0
-55 -65 0
-54 -65 0
-51 -74 0
-55 -72 0
-52 -78 0
-53 -77 0
-53 -81 0
-54 -81 0
-55 -91 0
-54 -92 0
-52 -99 0
-54 -99 0
-54 -104 0
-52 -105 0
-52 -110 0
-53 -109 0
-52 -111 0
-51 -111 0
-52 -121 0
-54 -123 0
-52 -132 0
-53 -132 0
-53 -138 0
-52 -139 0
-52 -142 0
-53 -141 0
-52 -155 0
-53 -152 0
-52 -157 0
-53 -157 0
-54 -164 0
-53 -164 0
-55 -167 0
-51 -168 0
-51 -174 0
-51 -173 0
-52 -188 0
-55 -188 0
-55 -203 0
-51 -205 0
-54 -213 0
-52 -213 0
-53 -217 0
-55 -220 0
-55 -225 0
-53 -222 0
-59 -69 0
-56 -70 0
-57 -72 0
-58 -74 0
-60 -79 0
-60 -80 0
-56 -92 0
-57 -94 0
-60 -106 0
-56 -107 0
-57 -118 0
-59 -120 0
-60 -121 0
-59 -122 0
-58 -130 0
-58 -129 0
-56 -139 0
-56 -140 0
-60 -143 0
-56 -145 0
-57 -149 0
-56 -148 0
-60 -155 0
-58 -151 0
-59 -167 0
-58 -169 0
-59 -172 0
-58 -175 0
-56 -177 0
-57 -179 0
-56 -190 0
-56 -188 0
-56 -209 0
-57 -207 0
-58 -214 0
-57 -215 0
-56 -225 0
-58 -224 0
-61 -67 0
-63 -67 0
-62 -79 0
-63 -78 0
-63 -84 0
-61 -81 0
-63 -86 0
-63 -90 0
-62 -94 0
-63 -93 0
-63 -110 0
-64 -110 0
-62 -112 0
-61 -113 0
-63 -120 0
-65 -116 0
-65 -121 0
-64 -121 0
-61 -126 0
-64 -127 0
-61 -135 0
-62 -135 0
-65 -137 0
-61 -139 0
-63 -143 0
-62 -143 0
-63 -147 0
-63 -146 0
-63 -156 0
-65 -156 0
-65 -163 0
-61 -164 0
-63 -170 0
-62 -167 0
-63 -174 0
-64 -175 0
-65 -180 0
-62 -180 0
-61 -185 0
-64 -183 0
-64 -193 0
-63 -194 0
-62 -196 0
-61 -197 0
-65 -202 0
-65 -204 0
-62 -206 0
-64 -206 0
-63 -212 0
-62 -215 0
-63 -223 0
-63 -225 0
-66 -73 0
-70 -72 0
-70 -80 0
-69 -79 0
-68 -83 0
-68 -81 0
-70 -90 0
-68 -88 0
-67 -103 0
-69 -105 0
-66 -109 0
-70 -109 0
-66 -113 0
-67 -115 0
-68 -121 0
-67 -121 0
-69 -127 0
-66 -126 0
-68 -133 0
-68 -132 0
-70 -138 0
-69 -138 0
-68 -145 0
-69 -143 0
-69 -150 0
-69 -147 0
-66 -153 0
-69 -154 0
-68 -161 0
-69 -163 0
-66 -170 0
-69 -169 0
-70 -172 0
-68 -174 0
-69 -177 0
-68 -179 0
-67 -182 0
-67 -184 0
-69 -188 0
-69 -186 0
-68 -193 0
-67 -191 0
-66 -198 0
-70 -198 0
-70 -204 0
-66 -202 0
-70 -207 0
-66 -208 0
-70 -214 0
-70 -212 0
-67 -217 0
-69 -217 0
-68 -222 0
-68 -224 0
-75 -82 0
-71 -82 0
-71 -87 0
-73 -87 0
-71 -97 0
-73 -99 0
-74 -105 0
-73 -102 0
-75 -108 0
-75 -106 0
-72 -120 0
-74 -116 0
-71 -122 0
-72 -121 0
-74 -137 0
-75 -137 0
-74 -141 0
-75 -144 0
-72 -147 0
-72 -150 0
-74 -159 0
-71 -160 0
-71 -168 0
-72 -168 0
-71 -176 0
-74 -179 0
-75 -182 0
-73 -181 0
-74 -188 0
-73 -186 0
-71 -192 0
-71 -195 0
-72 -211 0
-73 -211 0
-72 -218 0
-71 -216 0
-72 -223 0
-73 -222 0
-76 -89 0
-77 -90 0
-79 -94 0
-79 -95 0
-77 -100 0
-80 -100 0
-78 -101 0
-78 -102 0
-77 -114 0
-78 -112 0
-77 -126 0
-77 -128 0
-80 -135 0
-79 -135 0
-79 -136 0
-76 -136 0
-76 -141 0
-76 -142 0
-77 -155 0
-80 -154 0
-79 -159 0
-79 -158 0
-78 -162 0
-77 -163 0
-79 -166 0
-79 -169 0
-76 -176 0
-78 -177 0
-77 -184 0
-80 -182 0
-78 -187 0
-76 -188 0
-78 -195 0
-76 -193 0
-78 -196 0
-80 -197 0
-77 -205 0
-78 -205 0
-76 -215 0
-77 -211 0
-76 -216 0
-77 -220 0
-76 -222 0
-79 -221 0
-81 -86 0
-85 -87 0
-84 -98 0
-81 -96 0
-83 -109 0
-82 -110 0
-85 -117 0
-84 -120 0
-83 -122 0
-82 -125 0
-85 -126 0
-83 -128 0
-83 -137 0
-83 -138 0
-82 -142 0
-81 -143 0
-84 -161 0
-83 -163 0
-85 -167 0
-85 -170 0
-81 -176 0
-82 -180 0
-81 -185 0
-84 -181 0
-84 -194 0
-84 -192 0
-81 -197 0
-85 -198 0
-82 -204 0
-82 -203 0
-81 -208 0
-83 -210 0
-83 -213 0
-84 -213 0
-81 -219 0
-82 -219 0
-84 -224 0
-81 -221 0
-87 -93 0
-86 -93 0
-88 -102 0
-90 -104 0
-86 -115 0
-89 -115 0
-89 -120 0
-90 -118 0
-88 -135 0
-88 -131 0
-87 -137 0
-86 -139 0
-90 -150 0
-88 -147 0
-87 -159 0
-90 -160 0
-89 -163 0
-88 -161 0
-88 -169 0
-88 -167 0
-90 -171 0
-88 -172 0
-87 -184 0
-89 -182 0
-89 -200 0
-89 -197 0
-88 -201 0
-87 -204 0
-89 -217 0
-86 -217 0
-94 -105 0
-92 -104 0
-94 -106 0
-93 -108 0
-92 -114 0
-94 -112 0
-94 -117 0
-93 -120 0
-93 -129 0
-94 -127 0
-92 -131 0
-91 -132 0
-93 -145 0
-91 -142 0
-92 -149 0
-93 -149 0
-95 -152 0
-92 -151 0
-93 -156 0
-92 -160 0
-91 -161 0
-92 -163 0
-95 -167 0
-94 -168 0
-91 -171 0
-93 -174 0
-94 -187 0
-95 -188 0
-92 -192 0
-94 -194 0
-95 -198 0
-95 -196 0
-92 -205 0
-91 -201 0
-94 -225 0
-93 -225 0
-98 -104 0
-96 -104 0
-96 -109 0
-98 -109 0
-99 -120 0
-99 -117 0
-98 -126 0
-98 -127 0
-98 -140 0
-100 -140 0
-99 -141 0
-96 -142 0
-100 -155 0
-99 -153 0
-100 -159 0
-96 -159 0
-99 -164 0
-98 -161 0
-99 -179 0
-96 -176 0
-97 -184 0
-100 -183 0
-96 -198 0
-96 -200 0
-96 -209 0
-97 -209 0
-98 -212 0
-97 -211 0
-97 -221 0
-97 -223 0
-104 -106 0
-102 -107 0
-102 -115 0
-103 -114 0
-101 -125 0
-103 -123 0
-105 -131 0
-105 -134 0
-101 -141 0
-105 -142 0
-105 -148 0
-101 -149 0
-102 -152 0
-102 -151 0
-101 -159 0
-104 -156 0
-101 -162 0
-104 -163 0
-101 -170 0
-105 -170 0
-103 -179 0
-102 -180 0
-101 -181 0
-103 -181 0
-102 -189 0
-105 -190 0
-101 -191 0
-105 -193 0
-101 -201 0
-102 -201 0
-105 -211 0
-102 -213 0
-103 -217 0
-105 -218 0
-108 -112 0
-110 -113 0
-109 -118 0
-110 -120 0
-109 -133 0
-107 -131 0
-108 -139 0
-108 -138 0
-109 -150 0
-110 -149 0
-107 -160 0
-106 -157 0
-109 -166 0
-107 -167 0
-107 -173 0
-110 -172 0
-108 -181 0
-107 -181 0
-106 -192 0
-107 -193 0
-106 -200 0
-109 -197 0
-106 -209 0
-106 -210 0
-109 -214 0
-106 -214 0
-109 -218 0
-110 -216 0
-110 -224 0
-108 -225 0
-113 -122 0
-112 -123 0
-115 -130 0
-114 -128 0
-112 -131 0
-115 -133 0
-113 -139 0
-112 -139 0
-112 -149 0
-113 -149 0
-112 -151 0
-111 -152 0
-114 -160 0
-114 -159 0
-114 -166 0
-114 -168 0
-114 -173 0
-113 -173 0
-115 -188 0
-113 -189 0
-112 -199 0
-112 -200 0
-111 -204 0
-111 -203 0
-111 -215 0
-112 -213 0
-114 -222 0
-112 -221 0
-116 -124 0
-117 -121 0
-116 -133 0
-120 -134 0
-119 -144 0
-119 -145 0
-120 -148 0
-119 -147 0
-117 -154 0
-119 -153 0
-117 -161 0
-120 -161 0
-118 -169 0
-116 -169 0
-117 -174 0
-116 -172 0
-116 -178 0
-118 -180 0
-120 -198 0
-119 -200 0
-120 -203 0
-118 -201 0
-120 -207 0
-118 -207 0
-119 -211 0
-120 -213 0
-116 -220 0
-118 -220 0
-124 -126 0
-125 -128 0
-123 -132 0
-125 -133 0
-125 -138 0
-123 -137 0
-123 -143 0
-124 -144 0
-121 -157 0
-125 -156 0
-125 -163 0
-123 -162 0
-125 -168 0
-123 -169 0
-122 -172 0
-124 -173 0
-121 -186 0
-121 -188 0
-121 -195 0
-124 -195 0
-123 -196 0
-121 -198 0
-122 -205 0
-121 -205 0
-125 -210 0
-124 -208 0
-122 -215 0
-124 -211 0
-128 -140 0
-130 -139 0
-126 -150 0
-127 -147 0
-128 -159 0
-128 -157 0
-130 -164 0
-127 -161 0
-130 -167 0
-129 -168 0
-130 -175 0
-127 -173 0
-128 -177 0
-128 -178 0
-128 -187 0
-126 -186 0
-129 -201 0
-126 -201 0
-129 -212 0
-126 -212 0
-128 -216 0
-130 -217 0
-129 -223 0
-126 -225 0
-131 -137 0
-131 -140 0
-133 -142 0
-131 -143 0
-133 -153 0
-132 -155 0
-135 -168 0
-134 -167 0
-135 -174 0
-132 -175 0
-133 -177 0
-132 -180 0
-132 -182 0
-131 -183 0
-133 -192 0
-132 -191 0
-131 -209 0
-131 -210 0
-133 -211 0
-135 -215 0
-132 -217 0
-131 -218 0
-136 -150 0
-140 -150 0
-137 -162 0
-138 -163 0
-136 -171 0
-137 -172 0
-136 -180 0
-138 -177 0
-137 -184 0
-140 -183 0
-137 -196 0
-137 -199 0
-136 -206 0
-137 -209 0
-140 -213 0
-136 -212 0
-139 -216 0
-138 -219 0
-139 -223 0
-136 -222 0
-145 -150 0
-145 -147 0
-144 -153 0
-145 -154 0
-144 -157 0
-144 -156 0
-143 -164 0
-145 -164 0
-145 -168 0
-145 -167 0
-145 -178 0
-144 -179 0
-143 -188 0
-141 -187 0
-141 -200 0
-145 -200 0
-142 -201 0
-145 -201 0
-145 -208 0
-141 -206 0
-144 -211 0
-145 -211 0
-145 -220 0
-145 -218 0
-147 -170 0
-149 -170 0
-148 -184 0
-146 -181 0
-147 -197 0
-147 -200 0
-150 -201 0
-147 -205 0
-146 -208 0
-148 -209 0
-148 -213 0
-149 -211 0
-146 -216 0
-149 -219 0
-154 -160 0
-151 -159 0
-154 -166 0
-153 -170 0
-155 -172 0
-154 -174 0
-151 -177 0
-153 -179 0
-152 -183 0
-153 -185 0
-155 -190 0
-153 -190 0
-151 -193 0
-155 -194 0
-152 -197 0
-151 -197 0
-155 -205 0
-151 -202 0
-154 -209 0
-152 -207 0
-151 -212 0
-153 -212 0
-154 -217 0
-153 -219 0
-153 -225 0
-152 -224 0
-157 -165 0
-160 -162 0
-158 -172 0
-159 -175 0
-157 -182 0
-160 -185 0
-158 -190 0
-160 -186 0
-160 -193 0
-158 -195 0
-160 -201 0
-159 -202 0
-159 -209 0
-160 -210 0
-156 -215 0
-158 -212 0
-160 -218 0
-156 -220 0
-164 -175 0
-164 -171 0
-165 -180 0
-164 -179 0
-165 -183 0
-164 -182 0
-163 -186 0
-161 -187 0
-162 -204 0
-164 -201 0
-164 -209 0
-165 -208 0
-163 -213 0
-163 -211 0
-162 -217 0
-165 -219 0
-168 -180 0
-166 -180 0
-170 -195 0
-170 -191 0
-166 -199 0
-169 -196 0
-169 -203 0
-169 -204 0
-168 -209 0
-168 -207 0
-168 -211 0
-168 -214 0
-167 -220 0
-166 -216 0
-168 -225 0
-170 -223 0
-174 -177 0
-173 -179 0
-173 -182 0
-175 -185 0
-174 -194 0
-171 -195 0
-173 -199 0
-174 -200 0
-173 -204 0
-172 -202 0
-171 -207 0
-175 -208 0
-174 -211 0
-173 -214 0
-171 -218 0
-171 -219 0
-173 -222 0
-174 -221 0
-179 -189 0
-177 -189 0
-177 -195 0
-179 -192 0
-179 -199 0
-180 -199 0
-178 -202 0
-177 -204 0
-178 -212 0
-178 -215 0
-176 -216 0
-177 -218 0
-179 -225 0
-178 -221 0
-182 -190 0
-184 -186 0
-184 -195 0
-181 -195 0
-184 -196 0
-182 -198 0
-184 -203 0
-184 -204 0
-181 -210 0
-181 -208 0
-185 -219 0
-184 -216 0
-182 -225 0
-183 -223 0
-190 -191 0
-190 -193 0
-189 -210 0
-187 -208 0
-189 -212 0
-190 -212 0
-187 -217 0
-190 -220 0
-195 -198 0
-193 -197 0
-194 -203 0
-193 -203 0
-193 -215 0
-195 -211 0
-194 -217 0
-195 -219 0
-200 -202 0
-197 -203 0
-200 -206 0
-196 -208 0
-196 -212 0
-198 -211 0
-199 -218 0
-197 -220 0
-197 -225 0
-198 -221 0
-202 -211 0
-204 -211 0
-202 -218 0
-203 -219 0
-205 -224 0
-201 -223 0
-209 -216 0
-209 -217 0
-211 -216 0
-215 -219 0
-220 -222 0
-217 -224 0
